cluster_editing/exact/simple_reductions/graphs/exact115.gr
p cep 211 1705
1 25
1 26
1 70
1 75
1 91
1 111
1 118
1 126
1 145
1 155
1 159
1 179
1 184
1 188
1 199
2 41
2 106
2 120
2 135
3 49
3 136
3 192
4 113
4 204
5 55
6 27
6 97
7 28
7 66
7 98
8 51
9 29
9 62
9 81
9 99
9 150
9 156
9 196
10 58
10 61
10 65
10 67
10 73
10 106
10 114
10 135
10 154
10 162
10 169
10 192
11 17
12 19
12 37
12 52
12 54
12 77
12 90
12 121
12 134
12 142
12 168
12 180
12 183
13 18
13 21
13 22
13 32
13 34
13 36
13 42
13 48
13 53
13 57
13 71
13 78
13 83
13 85
13 92
13 94
13 102
13 107
13 112
13 115
13 122
13 127
13 128
13 133
13 144
13 148
13 152
13 164
13 167
13 171
13 178
13 182
13 186
13 200
13 207
14 23
14 24
14 35
14 38
14 39
14 43
14 44
14 56
14 59
14 70
14 72
14 80
14 84
14 93
14 103
14 110
14 117
14 119
14 125
14 126
14 130
14 131
14 132
14 141
14 146
14 149
14 151
14 155
14 159
14 161
14 166
14 170
14 177
14 181
14 189
14 202
15 210
16 211
18 21
18 22
18 32
18 36
18 42
18 48
18 53
18 57
18 71
18 78
18 83
18 85
18 92
18 94
18 102
18 104
18 107
18 112
18 115
18 122
18 127
18 133
18 144
18 152
18 164
18 167
18 178
18 182
18 186
18 200
18 207
19 33
19 37
19 46
19 52
19 54
19 63
19 90
19 101
19 121
19 123
19 129
19 134
19 142
19 168
19 172
19 180
19 183
19 195
19 209
20 24
20 86
20 105
20 117
20 176
21 22
21 32
21 36
21 40
21 42
21 48
21 53
21 57
21 71
21 83
21 85
21 92
21 94
21 102
21 107
21 112
21 115
21 122
21 127
21 128
21 133
21 144
21 148
21 152
21 164
21 167
21 178
21 182
21 186
21 194
21 200
21 207
22 32
22 34
22 36
22 42
22 48
22 53
22 57
22 71
22 78
22 85
22 92
22 94
22 104
22 107
22 112
22 115
22 122
22 127
22 128
22 133
22 144
22 148
22 152
22 164
22 167
22 171
22 178
22 182
22 186
22 200
22 207
23 24
23 25
23 35
23 38
23 39
23 43
23 44
23 56
23 59
23 70
23 72
23 80
23 84
23 91
23 93
23 103
23 110
23 117
23 119
23 125
23 126
23 130
23 131
23 132
23 141
23 146
23 149
23 151
23 155
23 159
23 161
23 166
23 170
23 177
23 181
23 189
23 199
23 202
24 25
24 35
24 38
24 39
24 43
24 44
24 56
24 59
24 70
24 72
24 80
24 84
24 86
24 93
24 103
24 110
24 117
24 119
24 125
24 126
24 130
24 131
24 132
24 141
24 146
24 149
24 151
24 155
24 159
24 161
24 166
24 170
24 176
24 177
24 181
24 199
24 202
25 26
25 70
25 75
25 91
25 111
25 117
25 118
25 126
25 145
25 155
25 159
25 179
25 184
25 188
25 199
26 70
26 75
26 84
26 91
26 103
26 111
26 118
26 126
26 145
26 155
26 159
26 179
26 184
26 188
26 199
27 97
28 66
28 98
29 62
29 81
29 99
29 150
29 156
29 196
30 76
31 62
31 79
32 34
32 36
32 42
32 48
32 53
32 57
32 71
32 78
32 83
32 85
32 92
32 94
32 102
32 104
32 107
32 112
32 115
32 122
32 127
32 128
32 133
32 144
32 148
32 152
32 164
32 167
32 171
32 178
32 182
32 186
32 200
32 207
33 52
33 121
33 123
33 134
33 209
34 36
34 42
34 48
34 53
34 57
34 71
34 92
34 94
34 112
34 115
34 122
34 127
34 128
34 133
34 144
34 148
34 152
34 167
34 178
34 182
34 186
34 200
34 207
35 38
35 39
35 43
35 44
35 56
35 59
35 72
35 80
35 84
35 93
35 103
35 110
35 117
35 119
35 125
35 126
35 130
35 131
35 132
35 141
35 146
35 149
35 151
35 155
35 159
35 161
35 166
35 170
35 177
35 181
35 199
35 202
36 42
36 48
36 50
36 53
36 57
36 71
36 78
36 83
36 85
36 92
36 94
36 102
36 104
36 107
36 112
36 115
36 122
36 127
36 128
36 133
36 144
36 148
36 152
36 164
36 167
36 171
36 178
36 182
36 186
36 200
36 207
37 52
37 54
37 63
37 69
37 90
37 101
37 121
37 123
37 129
37 134
37 142
37 153
37 168
37 172
37 173
37 180
37 183
37 187
37 190
37 197
37 209
38 39
38 43
38 44
38 56
38 59
38 70
38 72
38 80
38 84
38 93
38 103
38 110
38 117
38 119
38 125
38 126
38 130
38 131
38 132
38 141
38 146
38 149
38 151
38 155
38 159
38 161
38 166
38 170
38 177
38 181
38 189
38 191
38 202
39 43
39 44
39 56
39 59
39 70
39 72
39 80
39 84
39 93
39 103
39 110
39 111
39 117
39 119
39 125
39 126
39 130
39 131
39 132
39 141
39 146
39 149
39 151
39 155
39 159
39 161
39 166
39 170
39 177
39 181
39 189
39 199
39 202
40 92
40 194
41 58
41 106
41 135
41 165
42 48
42 50
42 53
42 57
42 71
42 78
42 83
42 85
42 92
42 94
42 102
42 104
42 107
42 112
42 115
42 122
42 127
42 128
42 133
42 144
42 148
42 152
42 164
42 167
42 178
42 182
42 186
42 200
42 207
43 44
43 56
43 59
43 70
43 72
43 80
43 84
43 93
43 103
43 110
43 117
43 119
43 125
43 126
43 130
43 131
43 132
43 141
43 146
43 149
43 151
43 155
43 159
43 161
43 166
43 170
43 177
43 181
43 199
43 202
44 56
44 59
44 70
44 72
44 80
44 84
44 93
44 103
44 110
44 117
44 119
44 125
44 126
44 130
44 131
44 132
44 141
44 146
44 149
44 151
44 155
44 159
44 161
44 166
44 170
44 177
44 181
44 189
44 199
44 202
46 195
48 53
48 57
48 71
48 78
48 85
48 92
48 94
48 104
48 107
48 112
48 115
48 122
48 127
48 128
48 133
48 144
48 148
48 152
48 164
48 167
48 178
48 182
48 186
48 200
48 207
49 136
49 192
50 71
50 92
50 122
50 128
50 133
50 148
50 152
50 186
50 200
50 207
52 54
52 63
52 69
52 90
52 101
52 121
52 123
52 129
52 134
52 142
52 153
52 168
52 172
52 183
52 187
52 190
52 197
52 209
53 57
53 71
53 78
53 83
53 85
53 92
53 94
53 102
53 104
53 107
53 112
53 115
53 122
53 127
53 128
53 133
53 144
53 148
53 152
53 164
53 167
53 171
53 178
53 182
53 186
53 200
53 207
54 63
54 69
54 77
54 90
54 121
54 134
54 142
54 168
54 172
54 180
54 183
54 209
56 59
56 70
56 72
56 80
56 84
56 93
56 103
56 110
56 117
56 119
56 125
56 126
56 130
56 131
56 132
56 141
56 146
56 149
56 151
56 155
56 159
56 161
56 166
56 170
56 177
56 181
56 189
56 202
57 71
57 78
57 83
57 85
57 92
57 94
57 102
57 107
57 112
57 115
57 122
57 127
57 128
57 133
57 144
57 148
57 152
57 164
57 167
57 178
57 182
57 186
57 200
57 207
58 61
58 65
58 67
58 73
58 165
59 72
59 80
59 84
59 93
59 103
59 110
59 117
59 119
59 125
59 130
59 131
59 132
59 141
59 146
59 149
59 151
59 159
59 161
59 166
59 170
59 177
59 181
59 189
59 202
60 74
61 65
61 67
61 73
61 114
61 154
61 162
61 169
61 192
62 79
62 81
62 99
62 150
62 156
63 69
63 90
63 101
63 121
63 123
63 134
63 153
63 168
63 209
65 67
65 73
65 154
65 162
65 169
66 98
67 73
67 114
67 136
67 154
67 162
67 169
67 192
67 198
69 82
69 90
69 101
69 121
69 123
69 129
69 134
69 153
69 173
69 187
69 190
69 197
69 209
70 72
70 75
70 80
70 84
70 91
70 93
70 103
70 110
70 111
70 117
70 118
70 125
70 126
70 130
70 131
70 145
70 146
70 149
70 155
70 159
70 161
70 166
70 170
70 177
70 179
70 181
70 184
70 188
70 199
71 78
71 83
71 85
71 92
71 94
71 102
71 107
71 112
71 115
71 122
71 127
71 128
71 133
71 144
71 148
71 152
71 164
71 167
71 171
71 178
71 182
71 186
71 200
71 207
72 80
72 84
72 91
72 93
72 103
72 110
72 117
72 119
72 125
72 126
72 130
72 131
72 132
72 141
72 146
72 149
72 151
72 155
72 159
72 161
72 166
72 170
72 177
72 181
72 189
72 199
72 202
73 114
73 154
73 162
73 169
73 192
75 91
75 118
75 126
75 145
75 155
75 159
75 179
75 184
75 188
75 199
77 142
77 168
77 180
77 183
78 92
78 94
78 112
78 115
78 122
78 127
78 133
78 144
78 152
78 167
78 178
78 182
78 186
78 200
78 207
80 84
80 93
80 103
80 110
80 117
80 119
80 125
80 130
80 131
80 132
80 141
80 146
80 149
80 151
80 155
80 159
80 166
80 170
80 177
80 181
80 189
80 202
81 99
81 150
81 156
81 196
82 100
83 92
83 94
83 102
83 112
83 115
83 122
83 127
83 128
83 133
83 144
83 148
83 152
83 178
83 182
83 186
83 200
83 207
84 93
84 103
84 110
84 117
84 118
84 119
84 125
84 126
84 130
84 131
84 132
84 141
84 146
84 149
84 151
84 155
84 159
84 161
84 166
84 170
84 176
84 177
84 181
84 189
84 202
85 92
85 94
85 104
85 112
85 115
85 122
85 127
85 133
85 144
85 152
85 164
85 178
85 182
85 186
85 200
85 207
86 105
86 117
86 131
86 149
86 176
87 88
87 193
88 193
89 175
90 101
90 121
90 134
90 142
90 168
90 180
90 183
90 209
91 110
91 111
91 117
91 118
91 125
91 126
91 145
91 155
91 159
91 170
91 179
91 184
91 188
91 199
92 94
92 102
92 104
92 107
92 112
92 115
92 122
92 127
92 128
92 133
92 144
92 148
92 152
92 164
92 167
92 178
92 182
92 186
92 200
92 207
93 103
93 110
93 111
93 117
93 119
93 125
93 126
93 130
93 131
93 132
93 141
93 146
93 149
93 151
93 155
93 159
93 161
93 166
93 170
93 177
93 181
93 189
93 199
93 202
94 102
94 104
94 107
94 112
94 115
94 122
94 127
94 128
94 133
94 144
94 148
94 152
94 164
94 167
94 178
94 182
94 186
94 200
94 207
95 109
99 150
99 156
99 196
101 121
101 134
101 153
101 209
102 112
102 115
102 122
102 127
102 128
102 133
102 144
102 148
102 152
102 178
102 182
102 186
102 200
102 207
103 110
103 117
103 118
103 119
103 125
103 126
103 130
103 131
103 132
103 141
103 146
103 149
103 151
103 155
103 159
103 161
103 166
103 170
103 176
103 177
103 181
103 189
103 202
104 115
104 122
104 127
104 133
104 164
105 176
106 135
106 165
107 112
107 115
107 122
107 127
107 128
107 133
107 144
107 148
107 152
107 164
107 167
107 178
107 182
107 186
107 200
107 207
110 117
110 119
110 125
110 126
110 130
110 131
110 132
110 141
110 146
110 149
110 151
110 155
110 159
110 161
110 166
110 170
110 177
110 181
110 189
110 202
111 118
111 125
111 126
111 145
111 155
111 159
111 179
111 184
111 188
111 199
112 115
112 122
112 127
112 128
112 133
112 144
112 148
112 152
112 164
112 167
112 171
112 178
112 182
112 186
112 200
112 207
113 204
114 154
114 162
114 169
115 122
115 127
115 128
115 133
115 144
115 148
115 152
115 164
115 167
115 171
115 178
115 182
115 186
115 200
115 207
116 158
116 160
116 208
117 119
117 125
117 126
117 130
117 131
117 132
117 141
117 146
117 149
117 151
117 155
117 159
117 161
117 166
117 170
117 176
117 177
117 181
117 189
117 199
117 202
118 126
118 145
118 155
118 159
118 179
118 184
118 188
118 199
119 125
119 130
119 131
119 132
119 141
119 146
119 149
119 151
119 161
119 166
119 170
119 177
119 181
119 189
119 202
120 135
121 123
121 129
121 134
121 153
121 168
121 172
121 173
121 183
121 187
121 190
121 197
121 209
122 127
122 128
122 133
122 144
122 148
122 152
122 164
122 167
122 171
122 178
122 182
122 186
122 200
122 207
123 134
124 147
125 126
125 130
125 131
125 132
125 141
125 146
125 149
125 151
125 155
125 159
125 161
125 166
125 170
125 177
125 181
125 189
125 202
126 130
126 131
126 132
126 141
126 145
126 146
126 149
126 155
126 159
126 161
126 166
126 170
126 177
126 179
126 181
126 184
126 188
126 199
126 202
127 128
127 133
127 144
127 148
127 152
127 164
127 167
127 171
127 178
127 182
127 186
127 200
127 207
128 133
128 144
128 148
128 152
128 167
128 178
128 182
128 186
128 200
128 207
129 134
129 153
129 187
129 197
129 209
130 131
130 132
130 141
130 146
130 149
130 151
130 155
130 159
130 161
130 166
130 170
130 177
130 181
130 189
130 199
130 202
131 132
131 141
131 146
131 149
131 151
131 155
131 159
131 161
131 166
131 170
131 177
131 181
131 189
131 202
132 141
132 146
132 149
132 151
132 155
132 159
132 161
132 166
132 170
132 177
132 181
132 189
132 199
132 202
133 144
133 148
133 152
133 164
133 167
133 171
133 178
133 182
133 186
133 200
133 207
134 142
134 153
134 168
134 172
134 173
134 180
134 183
134 187
134 190
134 197
134 209
135 165
136 192
137 161
137 205
141 146
141 149
141 151
141 155
141 166
141 170
141 177
141 181
141 189
141 202
142 168
142 180
142 183
143 185
144 148
144 152
144 164
144 167
144 171
144 178
144 182
144 186
144 200
144 207
145 155
145 159
145 179
145 184
145 188
145 199
146 149
146 151
146 155
146 159
146 161
146 166
146 170
146 177
146 181
146 189
146 202
148 152
148 167
148 178
148 182
148 186
148 200
148 207
149 151
149 155
149 159
149 161
149 166
149 170
149 177
149 181
149 202
150 156
150 196
151 161
151 166
151 170
151 177
151 181
151 189
151 202
152 164
152 167
152 171
152 178
152 182
152 186
152 200
152 207
153 173
153 187
153 197
153 209
154 162
154 169
155 159
155 166
155 170
155 177
155 179
155 181
155 184
155 188
155 199
155 202
156 196
157 161
158 160
158 208
159 161
159 166
159 170
159 177
159 179
159 181
159 184
159 188
159 199
160 208
161 166
161 170
161 177
161 181
161 205
162 169
164 167
164 178
164 182
164 186
164 200
164 207
166 170
166 177
166 181
166 189
166 202
167 171
167 178
167 182
167 186
167 200
167 207
168 180
168 183
170 177
170 181
170 202
171 178
171 182
171 186
171 200
171 207
172 209
173 190
174 201
177 181
177 189
177 202
178 182
178 186
178 200
178 207
179 184
179 188
179 199
180 183
181 189
181 202
182 186
182 200
182 207
184 188
184 199
186 200
186 207
187 197
187 209
188 199
189 202
197 209
200 207
