cluster_editing/exact/simple_reductions/graphs/exact115.gr.metis
211 1705
25 26 70 75 91 111 118 126 145 155 159 179 184 188 199 
41 106 120 135 
49 136 192 
113 204 
55 
27 97 
28 66 98 
51 
29 62 81 99 150 156 196 
58 61 65 67 73 106 114 135 154 162 169 192 
17 
19 37 52 54 77 90 121 134 142 168 180 183 
18 21 22 32 34 36 42 48 53 57 71 78 83 85 92 94 102 107 112 115 122 127 128 133 144 148 152 164 167 171 178 182 186 200 207 
23 24 35 38 39 43 44 56 59 70 72 80 84 93 103 110 117 119 125 126 130 131 132 141 146 149 151 155 159 161 166 170 177 181 189 202 
210 
211 
11 
13 21 22 32 36 42 48 53 57 71 78 83 85 92 94 102 104 107 112 115 122 127 133 144 152 164 167 178 182 186 200 207 
12 33 37 46 52 54 63 90 101 121 123 129 134 142 168 172 180 183 195 209 
24 86 105 117 176 
13 18 22 32 36 40 42 48 53 57 71 83 85 92 94 102 107 112 115 122 127 128 133 144 148 152 164 167 178 182 186 194 200 207 
13 18 21 32 34 36 42 48 53 57 71 78 85 92 94 104 107 112 115 122 127 128 133 144 148 152 164 167 171 178 182 186 200 207 
14 24 25 35 38 39 43 44 56 59 70 72 80 84 91 93 103 110 117 119 125 126 130 131 132 141 146 149 151 155 159 161 166 170 177 181 189 199 202 
14 20 23 25 35 38 39 43 44 56 59 70 72 80 84 86 93 103 110 117 119 125 126 130 131 132 141 146 149 151 155 159 161 166 170 176 177 181 199 202 
1 23 24 26 70 75 91 111 117 118 126 145 155 159 179 184 188 199 
1 25 70 75 84 91 103 111 118 126 145 155 159 179 184 188 199 
6 97 
7 66 98 
9 62 81 99 150 156 196 
76 
62 79 
13 18 21 22 34 36 42 48 53 57 71 78 83 85 92 94 102 104 107 112 115 122 127 128 133 144 148 152 164 167 171 178 182 186 200 207 
19 52 121 123 134 209 
13 22 32 36 42 48 53 57 71 92 94 112 115 122 127 128 133 144 148 152 167 178 182 186 200 207 
14 23 24 38 39 43 44 56 59 72 80 84 93 103 110 117 119 125 126 130 131 132 141 146 149 151 155 159 161 166 170 177 181 199 202 
13 18 21 22 32 34 42 48 50 53 57 71 78 83 85 92 94 102 104 107 112 115 122 127 128 133 144 148 152 164 167 171 178 182 186 200 207 
12 19 52 54 63 69 90 101 121 123 129 134 142 153 168 172 173 180 183 187 190 197 209 
14 23 24 35 39 43 44 56 59 70 72 80 84 93 103 110 117 119 125 126 130 131 132 141 146 149 151 155 159 161 166 170 177 181 189 191 202 
14 23 24 35 38 43 44 56 59 70 72 80 84 93 103 110 111 117 119 125 126 130 131 132 141 146 149 151 155 159 161 166 170 177 181 189 199 202 
21 92 194 
2 58 106 135 165 
13 18 21 22 32 34 36 48 50 53 57 71 78 83 85 92 94 102 104 107 112 115 122 127 128 133 144 148 152 164 167 178 182 186 200 207 
14 23 24 35 38 39 44 56 59 70 72 80 84 93 103 110 117 119 125 126 130 131 132 141 146 149 151 155 159 161 166 170 177 181 199 202 
14 23 24 35 38 39 43 56 59 70 72 80 84 93 103 110 117 119 125 126 130 131 132 141 146 149 151 155 159 161 166 170 177 181 189 199 202 

19 195 

13 18 21 22 32 34 36 42 53 57 71 78 85 92 94 104 107 112 115 122 127 128 133 144 148 152 164 167 178 182 186 200 207 
3 136 192 
36 42 71 92 122 128 133 148 152 186 200 207 
8 
12 19 33 37 54 63 69 90 101 121 123 129 134 142 153 168 172 183 187 190 197 209 
13 18 21 22 32 34 36 42 48 57 71 78 83 85 92 94 102 104 107 112 115 122 127 128 133 144 148 152 164 167 171 178 182 186 200 207 
12 19 37 52 63 69 77 90 121 134 142 168 172 180 183 209 
5 
14 23 24 35 38 39 43 44 59 70 72 80 84 93 103 110 117 119 125 126 130 131 132 141 146 149 151 155 159 161 166 170 177 181 189 202 
13 18 21 22 32 34 36 42 48 53 71 78 83 85 92 94 102 107 112 115 122 127 128 133 144 148 152 164 167 178 182 186 200 207 
10 41 61 65 67 73 165 
14 23 24 35 38 39 43 44 56 72 80 84 93 103 110 117 119 125 130 131 132 141 146 149 151 159 161 166 170 177 181 189 202 
74 
10 58 65 67 73 114 154 162 169 192 
9 29 31 79 81 99 150 156 
19 37 52 54 69 90 101 121 123 134 153 168 209 

10 58 61 67 73 154 162 169 
7 28 98 
10 58 61 65 73 114 136 154 162 169 192 198 

37 52 54 63 82 90 101 121 123 129 134 153 173 187 190 197 209 
1 14 23 24 25 26 38 39 43 44 56 72 75 80 84 91 93 103 110 111 117 118 125 126 130 131 145 146 149 155 159 161 166 170 177 179 181 184 188 199 
13 18 21 22 32 34 36 42 48 50 53 57 78 83 85 92 94 102 107 112 115 122 127 128 133 144 148 152 164 167 171 178 182 186 200 207 
14 23 24 35 38 39 43 44 56 59 70 80 84 91 93 103 110 117 119 125 126 130 131 132 141 146 149 151 155 159 161 166 170 177 181 189 199 202 
10 58 61 65 67 114 154 162 169 192 
60 
1 25 26 70 91 118 126 145 155 159 179 184 188 199 
30 
12 54 142 168 180 183 
13 18 22 32 36 42 48 53 57 71 92 94 112 115 122 127 133 144 152 167 178 182 186 200 207 
31 62 
14 23 24 35 38 39 43 44 56 59 70 72 84 93 103 110 117 119 125 130 131 132 141 146 149 151 155 159 166 170 177 181 189 202 
9 29 62 99 150 156 196 
69 100 
13 18 21 32 36 42 53 57 71 92 94 102 112 115 122 127 128 133 144 148 152 178 182 186 200 207 
14 23 24 26 35 38 39 43 44 56 59 70 72 80 93 103 110 117 118 119 125 126 130 131 132 141 146 149 151 155 159 161 166 170 176 177 181 189 202 
13 18 21 22 32 36 42 48 53 57 71 92 94 104 112 115 122 127 133 144 152 164 178 182 186 200 207 
20 24 105 117 131 149 176 
88 193 
87 193 
175 
12 19 37 52 54 63 69 101 121 134 142 168 180 183 209 
1 23 25 26 70 72 75 110 111 117 118 125 126 145 155 159 170 179 184 188 199 
13 18 21 22 32 34 36 40 42 48 50 53 57 71 78 83 85 94 102 104 107 112 115 122 127 128 133 144 148 152 164 167 178 182 186 200 207 
14 23 24 35 38 39 43 44 56 59 70 72 80 84 103 110 111 117 119 125 126 130 131 132 141 146 149 151 155 159 161 166 170 177 181 189 199 202 
13 18 21 22 32 34 36 42 48 53 57 71 78 83 85 92 102 104 107 112 115 122 127 128 133 144 148 152 164 167 178 182 186 200 207 
109 

6 27 
7 28 66 
9 29 62 81 150 156 196 
82 
19 37 52 63 69 90 121 134 153 209 
13 18 21 32 36 42 53 57 71 83 92 94 112 115 122 127 128 133 144 148 152 178 182 186 200 207 
14 23 24 26 35 38 39 43 44 56 59 70 72 80 84 93 110 117 118 119 125 126 130 131 132 141 146 149 151 155 159 161 166 170 176 177 181 189 202 
18 22 32 36 42 48 53 85 92 94 115 122 127 133 164 
20 86 176 
2 10 41 135 165 
13 18 21 22 32 36 42 48 53 57 71 92 94 112 115 122 127 128 133 144 148 152 164 167 178 182 186 200 207 

95 
14 23 24 35 38 39 43 44 56 59 70 72 80 84 91 93 103 117 119 125 126 130 131 132 141 146 149 151 155 159 161 166 170 177 181 189 202 
1 25 26 39 70 91 93 118 125 126 145 155 159 179 184 188 199 
13 18 21 22 32 34 36 42 48 53 57 71 78 83 85 92 94 102 107 115 122 127 128 133 144 148 152 164 167 171 178 182 186 200 207 
4 204 
10 61 67 73 154 162 169 
13 18 21 22 32 34 36 42 48 53 57 71 78 83 85 92 94 102 104 107 112 122 127 128 133 144 148 152 164 167 171 178 182 186 200 207 
158 160 208 
14 20 23 24 25 35 38 39 43 44 56 59 70 72 80 84 86 91 93 103 110 119 125 126 130 131 132 141 146 149 151 155 159 161 166 170 176 177 181 189 199 202 
1 25 26 70 75 84 91 103 111 126 145 155 159 179 184 188 199 
14 23 24 35 38 39 43 44 56 59 72 80 84 93 103 110 117 125 130 131 132 141 146 149 151 161 166 170 177 181 189 202 
2 135 
12 19 33 37 52 54 63 69 90 101 123 129 134 153 168 172 173 183 187 190 197 209 
13 18 21 22 32 34 36 42 48 50 53 57 71 78 83 85 92 94 102 104 107 112 115 127 128 133 144 148 152 164 167 171 178 182 186 200 207 
19 33 37 52 63 69 121 134 
147 
14 23 24 35 38 39 43 44 56 59 70 72 80 84 91 93 103 110 111 117 119 126 130 131 132 141 146 149 151 155 159 161 166 170 177 181 189 202 
1 14 23 24 25 26 35 38 39 43 44 56 70 72 75 84 91 93 103 110 111 117 118 125 130 131 132 141 145 146 149 155 159 161 166 170 177 179 181 184 188 199 202 
13 18 21 22 32 34 36 42 48 53 57 71 78 83 85 92 94 102 104 107 112 115 122 128 133 144 148 152 164 167 171 178 182 186 200 207 
13 21 22 32 34 36 42 48 50 53 57 71 83 92 94 102 107 112 115 122 127 133 144 148 152 167 178 182 186 200 207 
19 37 52 69 121 134 153 187 197 209 
14 23 24 35 38 39 43 44 56 59 70 72 80 84 93 103 110 117 119 125 126 131 132 141 146 149 151 155 159 161 166 170 177 181 189 199 202 
14 23 24 35 38 39 43 44 56 59 70 72 80 84 86 93 103 110 117 119 125 126 130 132 141 146 149 151 155 159 161 166 170 177 181 189 202 
14 23 24 35 38 39 43 44 56 59 72 80 84 93 103 110 117 119 125 126 130 131 141 146 149 151 155 159 161 166 170 177 181 189 199 202 
13 18 21 22 32 34 36 42 48 50 53 57 71 78 83 85 92 94 102 104 107 112 115 122 127 128 144 148 152 164 167 171 178 182 186 200 207 
12 19 33 37 52 54 63 69 90 101 121 123 129 142 153 168 172 173 180 183 187 190 197 209 
2 10 41 106 120 165 
3 49 67 192 
161 205 



14 23 24 35 38 39 43 44 56 59 72 80 84 93 103 110 117 119 125 126 130 131 132 146 149 151 155 166 170 177 181 189 202 
12 19 37 52 54 77 90 134 168 180 183 
185 
13 18 21 22 32 34 36 42 48 53 57 71 78 83 85 92 94 102 107 112 115 122 127 128 133 148 152 164 167 171 178 182 186 200 207 
1 25 26 70 75 91 111 118 126 155 159 179 184 188 199 
14 23 24 35 38 39 43 44 56 59 70 72 80 84 93 103 110 117 119 125 126 130 131 132 141 149 151 155 159 161 166 170 177 181 189 202 
124 
13 21 22 32 34 36 42 48 50 53 57 71 83 92 94 102 107 112 115 122 127 128 133 144 152 167 178 182 186 200 207 
14 23 24 35 38 39 43 44 56 59 70 72 80 84 86 93 103 110 117 119 125 126 130 131 132 141 146 151 155 159 161 166 170 177 181 202 
9 29 62 81 99 156 196 
14 23 24 35 38 39 43 44 56 59 72 80 84 93 103 110 117 119 125 130 131 132 141 146 149 161 166 170 177 181 189 202 
13 18 21 22 32 34 36 42 48 50 53 57 71 78 83 85 92 94 102 107 112 115 122 127 128 133 144 148 164 167 171 178 182 186 200 207 
37 52 63 69 101 121 129 134 173 187 197 209 
10 61 65 67 73 114 162 169 
1 14 23 24 25 26 35 38 39 43 44 56 70 72 75 80 84 91 93 103 110 111 117 118 125 126 130 131 132 141 145 146 149 159 166 170 177 179 181 184 188 199 202 
9 29 62 81 99 150 196 
161 
116 160 208 
1 14 23 24 25 26 35 38 39 43 44 56 59 70 72 75 80 84 91 93 103 110 111 117 118 125 126 130 131 132 145 146 149 155 161 166 170 177 179 181 184 188 199 
116 158 208 
14 23 24 35 38 39 43 44 56 59 70 72 84 93 103 110 117 119 125 126 130 131 132 137 146 149 151 157 159 166 170 177 181 205 
10 61 65 67 73 114 154 169 

13 18 21 22 32 36 42 48 53 57 71 85 92 94 104 107 112 115 122 127 133 144 152 167 178 182 186 200 207 
41 58 106 135 
14 23 24 35 38 39 43 44 56 59 70 72 80 84 93 103 110 117 119 125 126 130 131 132 141 146 149 151 155 159 161 170 177 181 189 202 
13 18 21 22 32 34 36 42 48 53 57 71 78 92 94 107 112 115 122 127 128 133 144 148 152 164 171 178 182 186 200 207 
12 19 37 52 54 63 77 90 121 134 142 180 183 
10 61 65 67 73 114 154 162 
14 23 24 35 38 39 43 44 56 59 70 72 80 84 91 93 103 110 117 119 125 126 130 131 132 141 146 149 151 155 159 161 166 177 181 202 
13 22 32 36 53 71 112 115 122 127 133 144 152 167 178 182 186 200 207 
19 37 52 54 121 134 209 
37 69 121 134 153 190 
201 
89 
20 24 84 86 103 105 117 
14 23 24 35 38 39 43 44 56 59 70 72 80 84 93 103 110 117 119 125 126 130 131 132 141 146 149 151 155 159 161 166 170 181 189 202 
13 18 21 22 32 34 36 42 48 53 57 71 78 83 85 92 94 102 107 112 115 122 127 128 133 144 148 152 164 167 171 182 186 200 207 
1 25 26 70 75 91 111 118 126 145 155 159 184 188 199 
12 19 37 54 77 90 134 142 168 183 
14 23 24 35 38 39 43 44 56 59 70 72 80 84 93 103 110 117 119 125 126 130 131 132 141 146 149 151 155 159 161 166 170 177 189 202 
13 18 21 22 32 34 36 42 48 53 57 71 78 83 85 92 94 102 107 112 115 122 127 128 133 144 148 152 164 167 171 178 186 200 207 
12 19 37 52 54 77 90 121 134 142 168 180 
1 25 26 70 75 91 111 118 126 145 155 159 179 188 199 
143 
13 18 21 22 32 34 36 42 48 50 53 57 71 78 83 85 92 94 102 107 112 115 122 127 128 133 144 148 152 164 167 171 178 182 200 207 
37 52 69 121 129 134 153 197 209 
1 25 26 70 75 91 111 118 126 145 155 159 179 184 199 
14 23 38 39 44 56 59 72 80 84 93 103 110 117 119 125 130 131 132 141 146 151 166 177 181 202 
37 52 69 121 134 173 
38 
3 10 49 61 67 73 136 
87 88 
21 40 
19 46 
9 29 81 99 150 156 
37 52 69 121 129 134 153 187 209 
67 
1 23 24 25 26 35 39 43 44 70 72 75 91 93 111 117 118 126 130 132 145 155 159 179 184 188 
13 18 21 22 32 34 36 42 48 50 53 57 71 78 83 85 92 94 102 107 112 115 122 127 128 133 144 148 152 164 167 171 178 182 186 207 
174 
14 23 24 35 38 39 43 44 56 59 72 80 84 93 103 110 117 119 125 126 130 131 132 141 146 149 151 155 166 170 177 181 189 

4 113 
137 161 

13 18 21 22 32 34 36 42 48 50 53 57 71 78 83 85 92 94 102 107 112 115 122 127 128 133 144 148 152 164 167 171 178 182 186 200 
116 158 160 
19 33 37 52 54 63 69 90 101 121 129 134 153 172 187 197 
15 
16 
